NAME : XML100_1162_22
DIMENSION : 101
NB_CLUSTERS : 28
CLUSTERING_ALG : DBSCAN
CLUSTERING_PARAMS : eps(56), minSamples(3)
CLUSTERS
1 0
2 2 3 33 34 38 42 48 77 81
3 7 12 15 73 79
4 18 40 68 88 92 98
5 4 27 50 89 94
6 22 39 59 83 96
7 10 26 41 47 74 75
8 53 58 63 67 70 76 99
9 5 32 62 64
10 11 13
11 9 16 87 90 97
12 49 86
13 25 72 85
14 30 37 78 82
15 6 69 84 93
16 46 52
17 8 54
18 29 43 71
19 1 17 51
20 14 23 45 66
21 20 31 56
22 44 61
23 28 55 65
24 24 36
25 21 60 95
26 19 91
27 57 100
28 35 80
EOF